100
32
26
29
4
2
22
20
30
8
10
32
4
4
27
2
25
9
18
5
20
4
17
2
1
18
3
4
3
4
17
2
2
1
2
5
7
8
20
3
4
6
18
2
2
1
22
17
2
17
3
1
4
2
3
3
1
17
1
5
3
4
3
5
2
4
20
1
2
1
1
2
2
4
2
2
1
2
2
3
2
18
6
1
3
2
3
2
2
1
2
2
2
2
3
3
2
2
17
1
1
2